g3 0 1 0	# problem cresc50
 6 100 1 0 0	# vars, constraints, objectives, ranges, eqns
 100 1	# nonlinear constraints, objectives
 0 0	# network constraints: nonlinear, linear
 6 3 3	# nonlinear vars in constraints, objectives, both
 0 0 0 1	# linear network variables; functions; arith, flags
 0 0 0 0 0	# discrete variables: binary, integer, nonlinear (b,c,o)
 550 3	# nonzeros in Jacobian, gradients
 0 0	# max name lengths: constraints, variables
 0 0 0 0 0	# common exprs: b,c,o,c1,o1
b
2 1e-08
2 1
2 0.39
3
3
0 0 6.2831852
x6
0 1
1 2
2 0.75
3 -40
4 5
5 1.5
r
1 0
1 0
1 0
1 0
1 0
1 0
1 0
1 0
1 0
1 0
1 0
1 0
1 0
1 0
1 0
1 0
1 0
1 0
1 0
1 0
1 0
1 0
1 0
1 0
1 0
1 0
1 0
1 0
1 0
1 0
1 0
1 0
1 0
1 0
1 0
1 0
1 0
1 0
1 0
1 0
1 0
1 0
1 0
1 0
1 0
1 0
1 0
1 0
1 0
1 0
2 0
2 0
2 0
2 0
2 0
2 0
2 0
2 0
2 0
2 0
2 0
2 0
2 0
2 0
2 0
2 0
2 0
2 0
2 0
2 0
2 0
2 0
2 0
2 0
2 0
2 0
2 0
2 0
2 0
2 0
2 0
2 0
2 0
2 0
2 0
2 0
2 0
2 0
2 0
2 0
2 0
2 0
2 0
2 0
2 0
2 0
2 0
2 0
2 0
2 0
C0
o54
3
o5
o0
n-0.514
o0
v3
o2
o2
v1
v0
o46
v5
n2
o5
o0
n-0.176
o0
v4
o2
o2
v1
v0
o41
v5
n2
o16
o5
o0
v0
v2
n2
C1
o54
3
o5
o0
n-0.948
o0
v3
o2
o2
v1
v0
o46
v5
n2
o5
o0
n-0.172
o0
v4
o2
o2
v1
v0
o41
v5
n2
o16
o5
o0
v0
v2
n2
C2
o54
3
o5
o0
n-0.702
o0
v3
o2
o2
v1
v0
o46
v5
n2
o5
o0
n-0.226
o0
v4
o2
o2
v1
v0
o41
v5
n2
o16
o5
o0
v0
v2
n2
C3
o54
3
o5
o0
n-0.495
o0
v3
o2
o2
v1
v0
o46
v5
n2
o5
o0
n-0.125
o0
v4
o2
o2
v1
v0
o41
v5
n2
o16
o5
o0
v0
v2
n2
C4
o54
3
o5
o0
n-0.823
o0
v3
o2
o2
v1
v0
o46
v5
n2
o5
o0
n-0.152
o0
v4
o2
o2
v1
v0
o41
v5
n2
o16
o5
o0
v0
v2
n2
C5
o54
3
o5
o0
n-0.625
o0
v3
o2
o2
v1
v0
o46
v5
n2
o5
o0
n-0.315
o0
v4
o2
o2
v1
v0
o41
v5
n2
o16
o5
o0
v0
v2
n2
C6
o54
3
o5
o0
n-0.347
o0
v3
o2
o2
v1
v0
o46
v5
n2
o5
o0
n-0.917
o0
v4
o2
o2
v1
v0
o41
v5
n2
o16
o5
o0
v0
v2
n2
C7
o54
3
o5
o0
n-0.52
o0
v3
o2
o2
v1
v0
o46
v5
n2
o5
o0
n-0.401
o0
v4
o2
o2
v1
v0
o41
v5
n2
o16
o5
o0
v0
v2
n2
C8
o54
3
o5
o0
n-0.607
o0
v3
o2
o2
v1
v0
o46
v5
n2
o5
o0
n-0.785
o0
v4
o2
o2
v1
v0
o41
v5
n2
o16
o5
o0
v0
v2
n2
C9
o54
3
o5
o0
n-0.758
o0
v3
o2
o2
v1
v0
o46
v5
n2
o5
o0
n-0.582
o0
v4
o2
o2
v1
v0
o41
v5
n2
o16
o5
o0
v0
v2
n2
C10
o54
3
o5
o0
n-0.2
o0
v3
o2
o2
v1
v0
o46
v5
n2
o5
o0
n-0.827
o0
v4
o2
o2
v1
v0
o41
v5
n2
o16
o5
o0
v0
v2
n2
C11
o54
3
o5
o0
n-0.416
o0
v3
o2
o2
v1
v0
o46
v5
n2
o5
o0
n-0.464
o0
v4
o2
o2
v1
v0
o41
v5
n2
o16
o5
o0
v0
v2
n2
C12
o54
3
o5
o0
n-0.979
o0
v3
o2
o2
v1
v0
o46
v5
n2
o5
o0
n-0.126
o0
v4
o2
o2
v1
v0
o41
v5
n2
o16
o5
o0
v0
v2
n2
C13
o54
3
o5
o0
n-0.213
o0
v3
o2
o2
v1
v0
o46
v5
n2
o5
o0
n-0.958
o0
v4
o2
o2
v1
v0
o41
v5
n2
o16
o5
o0
v0
v2
n2
C14
o54
3
o5
o0
n-0.737
o0
v3
o2
o2
v1
v0
o46
v5
n2
o5
o0
n-0.409
o0
v4
o2
o2
v1
v0
o41
v5
n2
o16
o5
o0
v0
v2
n2
C15
o54
3
o5
o0
n-0.957
o0
v3
o2
o2
v1
v0
o46
v5
n2
o5
o0
n-0.028
o0
v4
o2
o2
v1
v0
o41
v5
n2
o16
o5
o0
v0
v2
n2
C16
o54
3
o5
o0
n-0.319
o0
v3
o2
o2
v1
v0
o46
v5
n2
o5
o0
n-0.757
o0
v4
o2
o2
v1
v0
o41
v5
n2
o16
o5
o0
v0
v2
n2
C17
o54
3
o5
o0
n-0.572
o0
v3
o2
o2
v1
v0
o46
v5
n2
o5
o0
n-0.119
o0
v4
o2
o2
v1
v0
o41
v5
n2
o16
o5
o0
v0
v2
n2
C18
o54
3
o5
o0
n-0.57
o0
v3
o2
o2
v1
v0
o46
v5
n2
o5
o0
n-0.252
o0
v4
o2
o2
v1
v0
o41
v5
n2
o16
o5
o0
v0
v2
n2
C19
o54
3
o5
o0
n-0.496
o0
v3
o2
o2
v1
v0
o46
v5
n2
o5
o0
n-0.237
o0
v4
o2
o2
v1
v0
o41
v5
n2
o16
o5
o0
v0
v2
n2
C20
o54
3
o5
o0
n-0.477
o0
v3
o2
o2
v1
v0
o46
v5
n2
o5
o0
n-0.406
o0
v4
o2
o2
v1
v0
o41
v5
n2
o16
o5
o0
v0
v2
n2
C21
o54
3
o5
o0
n-0.873
o0
v3
o2
o2
v1
v0
o46
v5
n2
o5
o0
n-0.427
o0
v4
o2
o2
v1
v0
o41
v5
n2
o16
o5
o0
v0
v2
n2
C22
o54
3
o5
o0
n-0.522
o0
v3
o2
o2
v1
v0
o46
v5
n2
o5
o0
n-0.697
o0
v4
o2
o2
v1
v0
o41
v5
n2
o16
o5
o0
v0
v2
n2
C23
o54
3
o5
o0
n-0.773
o0
v3
o2
o2
v1
v0
o46
v5
n2
o5
o0
n-0.245
o0
v4
o2
o2
v1
v0
o41
v5
n2
o16
o5
o0
v0
v2
n2
C24
o54
3
o5
o0
n-0.887
o0
v3
o2
o2
v1
v0
o46
v5
n2
o5
o0
n-0.037
o0
v4
o2
o2
v1
v0
o41
v5
n2
o16
o5
o0
v0
v2
n2
C25
o54
3
o5
o0
n-0.651
o0
v3
o2
o2
v1
v0
o46
v5
n2
o5
o0
n-0.399
o0
v4
o2
o2
v1
v0
o41
v5
n2
o16
o5
o0
v0
v2
n2
C26
o54
3
o5
o0
n-0.676
o0
v3
o2
o2
v1
v0
o46
v5
n2
o5
o0
n-0.733
o0
v4
o2
o2
v1
v0
o41
v5
n2
o16
o5
o0
v0
v2
n2
C27
o54
3
o5
o0
n-0.938
o0
v3
o2
o2
v1
v0
o46
v5
n2
o5
o0
n-0.233
o0
v4
o2
o2
v1
v0
o41
v5
n2
o16
o5
o0
v0
v2
n2
C28
o54
3
o5
o0
n-0.779
o0
v3
o2
o2
v1
v0
o46
v5
n2
o5
o0
n-0.431
o0
v4
o2
o2
v1
v0
o41
v5
n2
o16
o5
o0
v0
v2
n2
C29
o54
3
o5
o0
n-0.75
o0
v3
o2
o2
v1
v0
o46
v5
n2
o5
o0
n-0.208
o0
v4
o2
o2
v1
v0
o41
v5
n2
o16
o5
o0
v0
v2
n2
C30
o54
3
o5
o0
n-0.803
o0
v3
o2
o2
v1
v0
o46
v5
n2
o5
o0
n-0.219
o0
v4
o2
o2
v1
v0
o41
v5
n2
o16
o5
o0
v0
v2
n2
C31
o54
3
o5
o0
n-0.563
o0
v3
o2
o2
v1
v0
o46
v5
n2
o5
o0
n-0.716
o0
v4
o2
o2
v1
v0
o41
v5
n2
o16
o5
o0
v0
v2
n2
C32
o54
3
o5
o0
n-0.653
o0
v3
o2
o2
v1
v0
o46
v5
n2
o5
o0
n-0.604
o0
v4
o2
o2
v1
v0
o41
v5
n2
o16
o5
o0
v0
v2
n2
C33
o54
3
o5
o0
n-0.79
o0
v3
o2
o2
v1
v0
o46
v5
n2
o5
o0
n-0.079
o0
v4
o2
o2
v1
v0
o41
v5
n2
o16
o5
o0
v0
v2
n2
C34
o54
3
o5
o0
n-0.246
o0
v3
o2
o2
v1
v0
o46
v5
n2
o5
o0
n-0.945
o0
v4
o2
o2
v1
v0
o41
v5
n2
o16
o5
o0
v0
v2
n2
C35
o54
3
o5
o0
n-0.477
o0
v3
o2
o2
v1
v0
o46
v5
n2
o5
o0
n-0.8
o0
v4
o2
o2
v1
v0
o41
v5
n2
o16
o5
o0
v0
v2
n2
C36
o54
3
o5
o0
n-0.744
o0
v3
o2
o2
v1
v0
o46
v5
n2
o5
o0
n-0.381
o0
v4
o2
o2
v1
v0
o41
v5
n2
o16
o5
o0
v0
v2
n2
C37
o54
3
o5
o0
n-0.48
o0
v3
o2
o2
v1
v0
o46
v5
n2
o5
o0
n-0.527
o0
v4
o2
o2
v1
v0
o41
v5
n2
o16
o5
o0
v0
v2
n2
C38
o54
3
o5
o0
n-0.446
o0
v3
o2
o2
v1
v0
o46
v5
n2
o5
o0
n-0.705
o0
v4
o2
o2
v1
v0
o41
v5
n2
o16
o5
o0
v0
v2
n2
C39
o54
3
o5
o0
n-0.095
o0
v3
o2
o2
v1
v0
o46
v5
n2
o5
o0
n-0.963
o0
v4
o2
o2
v1
v0
o41
v5
n2
o16
o5
o0
v0
v2
n2
C40
o54
3
o5
o0
n-0.551
o0
v3
o2
o2
v1
v0
o46
v5
n2
o5
o0
n-0.74
o0
v4
o2
o2
v1
v0
o41
v5
n2
o16
o5
o0
v0
v2
n2
C41
o54
3
o5
o0
n-0.579
o0
v3
o2
o2
v1
v0
o46
v5
n2
o5
o0
n-0.638
o0
v4
o2
o2
v1
v0
o41
v5
n2
o16
o5
o0
v0
v2
n2
C42
o54
3
o5
o0
n-0.782
o0
v3
o2
o2
v1
v0
o46
v5
n2
o5
o0
n-0.188
o0
v4
o2
o2
v1
v0
o41
v5
n2
o16
o5
o0
v0
v2
n2
C43
o54
3
o5
o0
n-0.684
o0
v3
o2
o2
v1
v0
o46
v5
n2
o5
o0
n-0.293
o0
v4
o2
o2
v1
v0
o41
v5
n2
o16
o5
o0
v0
v2
n2
C44
o54
3
o5
o0
n-0.565
o0
v3
o2
o2
v1
v0
o46
v5
n2
o5
o0
n-0.418
o0
v4
o2
o2
v1
v0
o41
v5
n2
o16
o5
o0
v0
v2
n2
C45
o54
3
o5
o0
n-0.566
o0
v3
o2
o2
v1
v0
o46
v5
n2
o5
o0
n-0.488
o0
v4
o2
o2
v1
v0
o41
v5
n2
o16
o5
o0
v0
v2
n2
C46
o54
3
o5
o0
n-0.607
o0
v3
o2
o2
v1
v0
o46
v5
n2
o5
o0
n-0.416
o0
v4
o2
o2
v1
v0
o41
v5
n2
o16
o5
o0
v0
v2
n2
C47
o54
3
o5
o0
n-0.036
o0
v3
o2
o2
v1
v0
o46
v5
n2
o5
o0
n-0.977
o0
v4
o2
o2
v1
v0
o41
v5
n2
o16
o5
o0
v0
v2
n2
C48
o54
3
o5
o0
n-0.647
o0
v3
o2
o2
v1
v0
o46
v5
n2
o5
o0
n-0.35
o0
v4
o2
o2
v1
v0
o41
v5
n2
o16
o5
o0
v0
v2
n2
C49
o54
3
o5
o0
n-0.553
o0
v3
o2
o2
v1
v0
o46
v5
n2
o5
o0
n-0.358
o0
v4
o2
o2
v1
v0
o41
v5
n2
o16
o5
o0
v0
v2
n2
C50
o54
3
o5
o0
n-0.514
v3
n2
o5
o0
n-0.176
v4
n2
o16
o5
o0
o2
v1
v0
v2
n2
C51
o54
3
o5
o0
n-0.948
v3
n2
o5
o0
n-0.172
v4
n2
o16
o5
o0
o2
v1
v0
v2
n2
C52
o54
3
o5
o0
n-0.702
v3
n2
o5
o0
n-0.226
v4
n2
o16
o5
o0
o2
v1
v0
v2
n2
C53
o54
3
o5
o0
n-0.495
v3
n2
o5
o0
n-0.125
v4
n2
o16
o5
o0
o2
v1
v0
v2
n2
C54
o54
3
o5
o0
n-0.823
v3
n2
o5
o0
n-0.152
v4
n2
o16
o5
o0
o2
v1
v0
v2
n2
C55
o54
3
o5
o0
n-0.625
v3
n2
o5
o0
n-0.315
v4
n2
o16
o5
o0
o2
v1
v0
v2
n2
C56
o54
3
o5
o0
n-0.347
v3
n2
o5
o0
n-0.917
v4
n2
o16
o5
o0
o2
v1
v0
v2
n2
C57
o54
3
o5
o0
n-0.52
v3
n2
o5
o0
n-0.401
v4
n2
o16
o5
o0
o2
v1
v0
v2
n2
C58
o54
3
o5
o0
n-0.607
v3
n2
o5
o0
n-0.785
v4
n2
o16
o5
o0
o2
v1
v0
v2
n2
C59
o54
3
o5
o0
n-0.758
v3
n2
o5
o0
n-0.582
v4
n2
o16
o5
o0
o2
v1
v0
v2
n2
C60
o54
3
o5
o0
n-0.2
v3
n2
o5
o0
n-0.827
v4
n2
o16
o5
o0
o2
v1
v0
v2
n2
C61
o54
3
o5
o0
n-0.416
v3
n2
o5
o0
n-0.464
v4
n2
o16
o5
o0
o2
v1
v0
v2
n2
C62
o54
3
o5
o0
n-0.979
v3
n2
o5
o0
n-0.126
v4
n2
o16
o5
o0
o2
v1
v0
v2
n2
C63
o54
3
o5
o0
n-0.213
v3
n2
o5
o0
n-0.958
v4
n2
o16
o5
o0
o2
v1
v0
v2
n2
C64
o54
3
o5
o0
n-0.737
v3
n2
o5
o0
n-0.409
v4
n2
o16
o5
o0
o2
v1
v0
v2
n2
C65
o54
3
o5
o0
n-0.957
v3
n2
o5
o0
n-0.028
v4
n2
o16
o5
o0
o2
v1
v0
v2
n2
C66
o54
3
o5
o0
n-0.319
v3
n2
o5
o0
n-0.757
v4
n2
o16
o5
o0
o2
v1
v0
v2
n2
C67
o54
3
o5
o0
n-0.572
v3
n2
o5
o0
n-0.119
v4
n2
o16
o5
o0
o2
v1
v0
v2
n2
C68
o54
3
o5
o0
n-0.57
v3
n2
o5
o0
n-0.252
v4
n2
o16
o5
o0
o2
v1
v0
v2
n2
C69
o54
3
o5
o0
n-0.496
v3
n2
o5
o0
n-0.237
v4
n2
o16
o5
o0
o2
v1
v0
v2
n2
C70
o54
3
o5
o0
n-0.477
v3
n2
o5
o0
n-0.406
v4
n2
o16
o5
o0
o2
v1
v0
v2
n2
C71
o54
3
o5
o0
n-0.873
v3
n2
o5
o0
n-0.427
v4
n2
o16
o5
o0
o2
v1
v0
v2
n2
C72
o54
3
o5
o0
n-0.522
v3
n2
o5
o0
n-0.697
v4
n2
o16
o5
o0
o2
v1
v0
v2
n2
C73
o54
3
o5
o0
n-0.773
v3
n2
o5
o0
n-0.245
v4
n2
o16
o5
o0
o2
v1
v0
v2
n2
C74
o54
3
o5
o0
n-0.887
v3
n2
o5
o0
n-0.037
v4
n2
o16
o5
o0
o2
v1
v0
v2
n2
C75
o54
3
o5
o0
n-0.651
v3
n2
o5
o0
n-0.399
v4
n2
o16
o5
o0
o2
v1
v0
v2
n2
C76
o54
3
o5
o0
n-0.676
v3
n2
o5
o0
n-0.733
v4
n2
o16
o5
o0
o2
v1
v0
v2
n2
C77
o54
3
o5
o0
n-0.938
v3
n2
o5
o0
n-0.233
v4
n2
o16
o5
o0
o2
v1
v0
v2
n2
C78
o54
3
o5
o0
n-0.779
v3
n2
o5
o0
n-0.431
v4
n2
o16
o5
o0
o2
v1
v0
v2
n2
C79
o54
3
o5
o0
n-0.75
v3
n2
o5
o0
n-0.208
v4
n2
o16
o5
o0
o2
v1
v0
v2
n2
C80
o54
3
o5
o0
n-0.803
v3
n2
o5
o0
n-0.219
v4
n2
o16
o5
o0
o2
v1
v0
v2
n2
C81
o54
3
o5
o0
n-0.563
v3
n2
o5
o0
n-0.716
v4
n2
o16
o5
o0
o2
v1
v0
v2
n2
C82
o54
3
o5
o0
n-0.653
v3
n2
o5
o0
n-0.604
v4
n2
o16
o5
o0
o2
v1
v0
v2
n2
C83
o54
3
o5
o0
n-0.79
v3
n2
o5
o0
n-0.079
v4
n2
o16
o5
o0
o2
v1
v0
v2
n2
C84
o54
3
o5
o0
n-0.246
v3
n2
o5
o0
n-0.945
v4
n2
o16
o5
o0
o2
v1
v0
v2
n2
C85
o54
3
o5
o0
n-0.477
v3
n2
o5
o0
n-0.8
v4
n2
o16
o5
o0
o2
v1
v0
v2
n2
C86
o54
3
o5
o0
n-0.744
v3
n2
o5
o0
n-0.381
v4
n2
o16
o5
o0
o2
v1
v0
v2
n2
C87
o54
3
o5
o0
n-0.48
v3
n2
o5
o0
n-0.527
v4
n2
o16
o5
o0
o2
v1
v0
v2
n2
C88
o54
3
o5
o0
n-0.446
v3
n2
o5
o0
n-0.705
v4
n2
o16
o5
o0
o2
v1
v0
v2
n2
C89
o54
3
o5
o0
n-0.095
v3
n2
o5
o0
n-0.963
v4
n2
o16
o5
o0
o2
v1
v0
v2
n2
C90
o54
3
o5
o0
n-0.551
v3
n2
o5
o0
n-0.74
v4
n2
o16
o5
o0
o2
v1
v0
v2
n2
C91
o54
3
o5
o0
n-0.579
v3
n2
o5
o0
n-0.638
v4
n2
o16
o5
o0
o2
v1
v0
v2
n2
C92
o54
3
o5
o0
n-0.782
v3
n2
o5
o0
n-0.188
v4
n2
o16
o5
o0
o2
v1
v0
v2
n2
C93
o54
3
o5
o0
n-0.684
v3
n2
o5
o0
n-0.293
v4
n2
o16
o5
o0
o2
v1
v0
v2
n2
C94
o54
3
o5
o0
n-0.565
v3
n2
o5
o0
n-0.418
v4
n2
o16
o5
o0
o2
v1
v0
v2
n2
C95
o54
3
o5
o0
n-0.566
v3
n2
o5
o0
n-0.488
v4
n2
o16
o5
o0
o2
v1
v0
v2
n2
C96
o54
3
o5
o0
n-0.607
v3
n2
o5
o0
n-0.416
v4
n2
o16
o5
o0
o2
v1
v0
v2
n2
C97
o54
3
o5
o0
n-0.036
v3
n2
o5
o0
n-0.977
v4
n2
o16
o5
o0
o2
v1
v0
v2
n2
C98
o54
3
o5
o0
n-0.647
v3
n2
o5
o0
n-0.35
v4
n2
o16
o5
o0
o2
v1
v0
v2
n2
C99
o54
3
o5
o0
n-0.553
v3
n2
o5
o0
n-0.358
v4
n2
o16
o5
o0
o2
v1
v0
v2
n2
O0 0
o54
3
o2
o5
o0
v0
v2
n2
o53
o16
o3
o0
o1
o5
o2
v1
v0
n2
o5
o0
o2
v1
v0
v2
n2
o5
o0
v0
v2
n2
o2
o2
o2
n2
o0
v0
v2
v1
v0
o16
o2
o5
o0
o2
v1
v0
v2
n2
o53
o3
o1
o0
o5
o2
v1
v0
n2
o5
o0
o2
v1
v0
v2
n2
o5
o0
v0
v2
n2
o2
o2
o2
n2
o0
o2
v1
v0
v2
v1
v0
o2
o2
o2
o0
v0
v2
v1
v0
o41
o53
o16
o3
o0
o1
o5
o2
v1
v0
n2
o5
o0
o2
v1
v0
v2
n2
o5
o0
v0
v2
n2
o2
o2
o2
n2
o0
v0
v2
v1
v0
k5
100
200
300
400
500
J0 6
0 0
1 0
2 0
3 0
4 0
5 0
J1 6
0 0
1 0
2 0
3 0
4 0
5 0
J2 6
0 0
1 0
2 0
3 0
4 0
5 0
J3 6
0 0
1 0
2 0
3 0
4 0
5 0
J4 6
0 0
1 0
2 0
3 0
4 0
5 0
J5 6
0 0
1 0
2 0
3 0
4 0
5 0
J6 6
0 0
1 0
2 0
3 0
4 0
5 0
J7 6
0 0
1 0
2 0
3 0
4 0
5 0
J8 6
0 0
1 0
2 0
3 0
4 0
5 0
J9 6
0 0
1 0
2 0
3 0
4 0
5 0
J10 6
0 0
1 0
2 0
3 0
4 0
5 0
J11 6
0 0
1 0
2 0
3 0
4 0
5 0
J12 6
0 0
1 0
2 0
3 0
4 0
5 0
J13 6
0 0
1 0
2 0
3 0
4 0
5 0
J14 6
0 0
1 0
2 0
3 0
4 0
5 0
J15 6
0 0
1 0
2 0
3 0
4 0
5 0
J16 6
0 0
1 0
2 0
3 0
4 0
5 0
J17 6
0 0
1 0
2 0
3 0
4 0
5 0
J18 6
0 0
1 0
2 0
3 0
4 0
5 0
J19 6
0 0
1 0
2 0
3 0
4 0
5 0
J20 6
0 0
1 0
2 0
3 0
4 0
5 0
J21 6
0 0
1 0
2 0
3 0
4 0
5 0
J22 6
0 0
1 0
2 0
3 0
4 0
5 0
J23 6
0 0
1 0
2 0
3 0
4 0
5 0
J24 6
0 0
1 0
2 0
3 0
4 0
5 0
J25 6
0 0
1 0
2 0
3 0
4 0
5 0
J26 6
0 0
1 0
2 0
3 0
4 0
5 0
J27 6
0 0
1 0
2 0
3 0
4 0
5 0
J28 6
0 0
1 0
2 0
3 0
4 0
5 0
J29 6
0 0
1 0
2 0
3 0
4 0
5 0
J30 6
0 0
1 0
2 0
3 0
4 0
5 0
J31 6
0 0
1 0
2 0
3 0
4 0
5 0
J32 6
0 0
1 0
2 0
3 0
4 0
5 0
J33 6
0 0
1 0
2 0
3 0
4 0
5 0
J34 6
0 0
1 0
2 0
3 0
4 0
5 0
J35 6
0 0
1 0
2 0
3 0
4 0
5 0
J36 6
0 0
1 0
2 0
3 0
4 0
5 0
J37 6
0 0
1 0
2 0
3 0
4 0
5 0
J38 6
0 0
1 0
2 0
3 0
4 0
5 0
J39 6
0 0
1 0
2 0
3 0
4 0
5 0
J40 6
0 0
1 0
2 0
3 0
4 0
5 0
J41 6
0 0
1 0
2 0
3 0
4 0
5 0
J42 6
0 0
1 0
2 0
3 0
4 0
5 0
J43 6
0 0
1 0
2 0
3 0
4 0
5 0
J44 6
0 0
1 0
2 0
3 0
4 0
5 0
J45 6
0 0
1 0
2 0
3 0
4 0
5 0
J46 6
0 0
1 0
2 0
3 0
4 0
5 0
J47 6
0 0
1 0
2 0
3 0
4 0
5 0
J48 6
0 0
1 0
2 0
3 0
4 0
5 0
J49 6
0 0
1 0
2 0
3 0
4 0
5 0
J50 5
0 0
1 0
2 0
3 0
4 0
J51 5
0 0
1 0
2 0
3 0
4 0
J52 5
0 0
1 0
2 0
3 0
4 0
J53 5
0 0
1 0
2 0
3 0
4 0
J54 5
0 0
1 0
2 0
3 0
4 0
J55 5
0 0
1 0
2 0
3 0
4 0
J56 5
0 0
1 0
2 0
3 0
4 0
J57 5
0 0
1 0
2 0
3 0
4 0
J58 5
0 0
1 0
2 0
3 0
4 0
J59 5
0 0
1 0
2 0
3 0
4 0
J60 5
0 0
1 0
2 0
3 0
4 0
J61 5
0 0
1 0
2 0
3 0
4 0
J62 5
0 0
1 0
2 0
3 0
4 0
J63 5
0 0
1 0
2 0
3 0
4 0
J64 5
0 0
1 0
2 0
3 0
4 0
J65 5
0 0
1 0
2 0
3 0
4 0
J66 5
0 0
1 0
2 0
3 0
4 0
J67 5
0 0
1 0
2 0
3 0
4 0
J68 5
0 0
1 0
2 0
3 0
4 0
J69 5
0 0
1 0
2 0
3 0
4 0
J70 5
0 0
1 0
2 0
3 0
4 0
J71 5
0 0
1 0
2 0
3 0
4 0
J72 5
0 0
1 0
2 0
3 0
4 0
J73 5
0 0
1 0
2 0
3 0
4 0
J74 5
0 0
1 0
2 0
3 0
4 0
J75 5
0 0
1 0
2 0
3 0
4 0
J76 5
0 0
1 0
2 0
3 0
4 0
J77 5
0 0
1 0
2 0
3 0
4 0
J78 5
0 0
1 0
2 0
3 0
4 0
J79 5
0 0
1 0
2 0
3 0
4 0
J80 5
0 0
1 0
2 0
3 0
4 0
J81 5
0 0
1 0
2 0
3 0
4 0
J82 5
0 0
1 0
2 0
3 0
4 0
J83 5
0 0
1 0
2 0
3 0
4 0
J84 5
0 0
1 0
2 0
3 0
4 0
J85 5
0 0
1 0
2 0
3 0
4 0
J86 5
0 0
1 0
2 0
3 0
4 0
J87 5
0 0
1 0
2 0
3 0
4 0
J88 5
0 0
1 0
2 0
3 0
4 0
J89 5
0 0
1 0
2 0
3 0
4 0
J90 5
0 0
1 0
2 0
3 0
4 0
J91 5
0 0
1 0
2 0
3 0
4 0
J92 5
0 0
1 0
2 0
3 0
4 0
J93 5
0 0
1 0
2 0
3 0
4 0
J94 5
0 0
1 0
2 0
3 0
4 0
J95 5
0 0
1 0
2 0
3 0
4 0
J96 5
0 0
1 0
2 0
3 0
4 0
J97 5
0 0
1 0
2 0
3 0
4 0
J98 5
0 0
1 0
2 0
3 0
4 0
J99 5
0 0
1 0
2 0
3 0
4 0
G0 3
0 0
1 0
2 0
